FourierSAT_Github_AIJ/benchmarks/MAXSAT_benchmarks/crafted/3/bipartite/maxcut-140-630-0.8/maxcut-140-630-0.8-12.cnf
c strEdges: 125  randomEdges: 504 
c degrees:  1  2 
c girth: Inf max: -43.604516  
c Hgirth mixed MAXCUT instance
c generated from an undirected graph
c to solve unweighted MaxCut
p cnf 140 1258
36 23 0
-36 -23 0
36 43 0
-36 -43 0
97 53 0
-97 -53 0
97 128 0
-97 -128 0
71 70 0
-71 -70 0
101 52 0
-101 -52 0
101 39 0
-101 -39 0
31 108 0
-31 -108 0
31 113 0
-31 -113 0
19 132 0
-19 -132 0
19 61 0
-19 -61 0
91 115 0
-91 -115 0
91 136 0
-91 -136 0
14 16 0
-14 -16 0
14 114 0
-14 -114 0
110 126 0
-110 -126 0
110 99 0
-110 -99 0
18 133 0
-18 -133 0
18 122 0
-18 -122 0
34 105 0
-34 -105 0
57 78 0
-57 -78 0
57 53 0
-57 -53 0
77 30 0
-77 -30 0
77 8 0
-77 -8 0
9 74 0
-9 -74 0
51 131 0
-51 -131 0
51 24 0
-51 -24 0
55 137 0
-55 -137 0
55 75 0
-55 -75 0
96 33 0
-96 -33 0
96 54 0
-96 -54 0
27 8 0
-27 -8 0
27 126 0
-27 -126 0
47 122 0
-47 -122 0
47 7 0
-47 -7 0
67 136 0
-67 -136 0
67 32 0
-67 -32 0
87 17 0
-87 -17 0
139 90 0
-139 -90 0
125 39 0
-125 -39 0
69 120 0
-69 -120 0
69 111 0
-69 -111 0
10 129 0
-10 -129 0
10 106 0
-10 -106 0
56 104 0
-56 -104 0
89 29 0
-89 -29 0
45 43 0
-45 -43 0
45 17 0
-45 -17 0
121 38 0
-121 -38 0
121 74 0
-121 -74 0
46 79 0
-46 -79 0
46 11 0
-46 -11 0
127 109 0
-127 -109 0
127 30 0
-127 -30 0
107 113 0
-107 -113 0
107 64 0
-107 -64 0
60 114 0
-60 -114 0
60 76 0
-60 -76 0
66 61 0
-66 -61 0
112 111 0
-112 -111 0
112 115 0
-112 -115 0
12 80 0
-12 -80 0
12 2 0
-12 -2 0
28 15 0
-28 -15 0
3 54 0
-3 -54 0
3 131 0
-3 -131 0
83 140 0
-83 -140 0
83 132 0
-83 -132 0
123 11 0
-123 -11 0
102 82 0
-102 -82 0
102 135 0
-102 -135 0
21 42 0
-21 -42 0
21 86 0
-21 -86 0
62 59 0
-62 -59 0
62 33 0
-62 -33 0
73 94 0
-73 -94 0
73 22 0
-73 -22 0
50 26 0
-50 -26 0
50 94 0
-50 -94 0
63 22 0
-63 -22 0
35 37 0
-35 -37 0
35 95 0
-35 -95 0
41 95 0
-41 -95 0
41 79 0
-41 -79 0
84 24 0
-84 -24 0
117 2 0
-117 -2 0
117 38 0
-117 -38 0
93 99 0
-93 -99 0
93 25 0
-93 -25 0
44 25 0
-44 -25 0
44 78 0
-44 -78 0
49 13 0
-49 -13 0
49 120 0
-49 -120 0
68 100 0
-68 -100 0
68 20 0
-68 -20 0
85 86 0
-85 -86 0
85 140 0
-85 -140 0
81 20 0
-81 -20 0
81 105 0
-81 -105 0
98 128 0
-98 -128 0
98 29 0
-98 -29 0
103 75 0
-103 -75 0
103 37 0
-103 -37 0
116 4 0
-116 -4 0
116 109 0
-116 -109 0
130 119 0
-130 -119 0
1 118 0
-1 -118 0
1 90 0
-1 -90 0
5 7 0
-5 -7 0
5 4 0
-5 -4 0
138 106 0
-138 -106 0
88 32 0
-88 -32 0
88 108 0
-88 -108 0
92 64 0
-92 -64 0
92 70 0
-92 -70 0
72 124 0
-72 -124 0
72 13 0
-72 -13 0
48 135 0
-48 -135 0
48 42 0
-48 -42 0
134 76 0
-134 -76 0
134 124 0
-134 -124 0
58 65 0
-58 -65 0
58 82 0
-58 -82 0
40 6 0
-40 -6 0
40 65 0
-40 -65 0
72 20 0
-72 -20 0
67 53 0
-67 -53 0
27 66 0
-27 -66 0
56 136 0
-56 -136 0
127 58 0
-127 -58 0
93 24 0
-93 -24 0
19 138 0
-19 -138 0
31 9 0
-31 -9 0
103 40 0
-103 -40 0
55 48 0
-55 -48 0
113 65 0
-113 -65 0
97 25 0
-97 -25 0
125 4 0
-125 -4 0
53 114 0
-53 -114 0
138 88 0
-138 -88 0
116 134 0
-116 -134 0
127 104 0
-127 -104 0
58 129 0
-58 -129 0
19 86 0
-19 -86 0
36 54 0
-36 -54 0
12 4 0
-12 -4 0
34 55 0
-34 -55 0
34 92 0
-34 -92 0
70 13 0
-70 -13 0
63 74 0
-63 -74 0
137 24 0
-137 -24 0
125 120 0
-125 -120 0
105 90 0
-105 -90 0
98 20 0
-98 -20 0
51 98 0
-51 -98 0
29 54 0
-29 -54 0
8 109 0
-8 -109 0
41 33 0
-41 -33 0
134 7 0
-134 -7 0
85 136 0
-85 -136 0
72 76 0
-72 -76 0
92 48 0
-92 -48 0
22 119 0
-22 -119 0
5 42 0
-5 -42 0
126 90 0
-126 -90 0
112 15 0
-112 -15 0
66 120 0
-66 -120 0
87 102 0
-87 -102 0
74 54 0
-74 -54 0
110 46 0
-110 -46 0
34 6 0
-34 -6 0
139 40 0
-139 -40 0
127 128 0
-127 -128 0
14 64 0
-14 -64 0
66 40 0
-66 -40 0
79 119 0
-79 -119 0
120 99 0
-120 -99 0
90 129 0
-90 -129 0
74 109 0
-74 -109 0
71 116 0
-71 -116 0
57 1 0
-57 -1 0
53 20 0
-53 -20 0
47 132 0
-47 -132 0
71 17 0
-71 -17 0
48 75 0
-48 -75 0
1 132 0
-1 -132 0
127 53 0
-127 -53 0
120 42 0
-120 -42 0
89 68 0
-89 -68 0
51 62 0
-51 -62 0
126 59 0
-126 -59 0
23 105 0
-23 -105 0
93 113 0
-93 -113 0
107 4 0
-107 -4 0
45 134 0
-45 -134 0
12 118 0
-12 -118 0
138 92 0
-138 -92 0
138 113 0
-138 -113 0
53 122 0
-53 -122 0
46 23 0
-46 -23 0
84 131 0
-84 -131 0
73 35 0
-73 -35 0
85 2 0
-85 -2 0
114 22 0
-114 -22 0
120 80 0
-120 -80 0
79 76 0
-79 -76 0
88 111 0
-88 -111 0
84 81 0
-84 -81 0
93 118 0
-93 -118 0
97 115 0
-97 -115 0
46 98 0
-46 -98 0
46 22 0
-46 -22 0
98 134 0
-98 -134 0
40 39 0
-40 -39 0
40 11 0
-40 -11 0
78 106 0
-78 -106 0
35 82 0
-35 -82 0
127 103 0
-127 -103 0
92 99 0
-92 -99 0
20 4 0
-20 -4 0
55 135 0
-55 -135 0
55 6 0
-55 -6 0
126 113 0
-126 -113 0
121 119 0
-121 -119 0
108 33 0
-108 -33 0
57 104 0
-57 -104 0
87 44 0
-87 -44 0
56 23 0
-56 -23 0
137 29 0
-137 -29 0
12 85 0
-12 -85 0
51 8 0
-51 -8 0
86 106 0
-86 -106 0
77 83 0
-77 -83 0
105 17 0
-105 -17 0
125 11 0
-125 -11 0
84 38 0
-84 -38 0
3 15 0
-3 -15 0
96 5 0
-96 -5 0
4 118 0
-4 -118 0
132 54 0
-132 -54 0
104 6 0
-104 -6 0
17 20 0
-17 -20 0
39 124 0
-39 -124 0
87 113 0
-87 -113 0
13 106 0
-13 -106 0
37 2 0
-37 -2 0
69 93 0
-69 -93 0
70 109 0
-70 -109 0
97 27 0
-97 -27 0
5 23 0
-5 -23 0
27 15 0
-27 -15 0
120 106 0
-120 -106 0
92 22 0
-92 -22 0
69 104 0
-69 -104 0
49 140 0
-49 -140 0
80 65 0
-80 -65 0
69 134 0
-69 -134 0
50 72 0
-50 -72 0
101 94 0
-101 -94 0
77 94 0
-77 -94 0
77 96 0
-77 -96 0
109 99 0
-109 -99 0
3 62 0
-3 -62 0
88 29 0
-88 -29 0
127 33 0
-127 -33 0
77 23 0
-77 -23 0
27 26 0
-27 -26 0
31 56 0
-31 -56 0
19 106 0
-19 -106 0
28 35 0
-28 -35 0
47 118 0
-47 -118 0
43 86 0
-43 -86 0
60 26 0
-60 -26 0
12 25 0
-12 -25 0
86 20 0
-86 -20 0
103 111 0
-103 -111 0
70 129 0
-70 -129 0
31 76 0
-31 -76 0
78 25 0
-78 -25 0
1 80 0
-1 -80 0
125 85 0
-125 -85 0
50 79 0
-50 -79 0
66 115 0
-66 -115 0
139 32 0
-139 -32 0
123 26 0
-123 -26 0
113 124 0
-113 -124 0
60 135 0
-60 -135 0
59 94 0
-59 -94 0
51 89 0
-51 -89 0
98 37 0
-98 -37 0
27 114 0
-27 -114 0
120 61 0
-120 -61 0
54 22 0
-54 -22 0
127 80 0
-127 -80 0
91 75 0
-91 -75 0
36 12 0
-36 -12 0
21 130 0
-21 -130 0
101 21 0
-101 -21 0
133 118 0
-133 -118 0
120 24 0
-120 -24 0
117 39 0
-117 -39 0
91 10 0
-91 -10 0
48 8 0
-48 -8 0
59 100 0
-59 -100 0
56 13 0
-56 -13 0
50 42 0
-50 -42 0
60 28 0
-60 -28 0
69 132 0
-69 -132 0
71 65 0
-71 -65 0
101 10 0
-101 -10 0
39 119 0
-39 -119 0
104 114 0
-104 -114 0
139 93 0
-139 -93 0
108 7 0
-108 -7 0
10 89 0
-10 -89 0
110 37 0
-110 -37 0
16 15 0
-16 -15 0
20 6 0
-20 -6 0
120 76 0
-120 -76 0
69 124 0
-69 -124 0
9 40 0
-9 -40 0
109 100 0
-109 -100 0
10 88 0
-10 -88 0
17 114 0
-17 -114 0
115 17 0
-115 -17 0
30 37 0
-30 -37 0
45 58 0
-45 -58 0
96 35 0
-96 -35 0
36 53 0
-36 -53 0
23 16 0
-23 -16 0
84 111 0
-84 -111 0
97 94 0
-97 -94 0
139 123 0
-139 -123 0
120 128 0
-120 -128 0
125 38 0
-125 -38 0
14 2 0
-14 -2 0
110 129 0
-110 -129 0
102 136 0
-102 -136 0
96 121 0
-96 -121 0
84 140 0
-84 -140 0
83 54 0
-83 -54 0
90 42 0
-90 -42 0
49 128 0
-49 -128 0
27 103 0
-27 -103 0
33 129 0
-33 -129 0
69 33 0
-69 -33 0
9 127 0
-9 -127 0
54 82 0
-54 -82 0
34 116 0
-34 -116 0
112 39 0
-112 -39 0
67 61 0
-67 -61 0
52 38 0
-52 -38 0
125 58 0
-125 -58 0
31 126 0
-31 -126 0
139 58 0
-139 -58 0
44 135 0
-44 -135 0
10 117 0
-10 -117 0
18 41 0
-18 -41 0
51 15 0
-51 -15 0
83 50 0
-83 -50 0
125 131 0
-125 -131 0
70 120 0
-70 -120 0
48 29 0
-48 -29 0
10 6 0
-10 -6 0
98 129 0
-98 -129 0
12 138 0
-12 -138 0
83 136 0
-83 -136 0
45 135 0
-45 -135 0
14 55 0
-14 -55 0
29 109 0
-29 -109 0
70 111 0
-70 -111 0
71 134 0
-71 -134 0
77 114 0
-77 -114 0
57 100 0
-57 -100 0
21 94 0
-21 -94 0
91 72 0
-91 -72 0
96 84 0
-96 -84 0
8 114 0
-8 -114 0
78 37 0
-78 -37 0
45 136 0
-45 -136 0
101 135 0
-101 -135 0
83 25 0
-83 -25 0
54 118 0
-54 -118 0
87 3 0
-87 -3 0
11 7 0
-11 -7 0
67 81 0
-67 -81 0
108 132 0
-108 -132 0
23 136 0
-23 -136 0
56 94 0
-56 -94 0
48 15 0
-48 -15 0
109 106 0
-109 -106 0
93 33 0
-93 -33 0
3 64 0
-3 -64 0
18 53 0
-18 -53 0
31 125 0
-31 -125 0
110 106 0
-110 -106 0
103 106 0
-103 -106 0
118 64 0
-118 -64 0
66 136 0
-66 -136 0
56 2 0
-56 -2 0
91 79 0
-91 -79 0
3 135 0
-3 -135 0
59 135 0
-59 -135 0
8 90 0
-8 -90 0
112 79 0
-112 -79 0
123 39 0
-123 -39 0
83 52 0
-83 -52 0
67 42 0
-67 -42 0
14 122 0
-14 -122 0
110 109 0
-110 -109 0
129 6 0
-129 -6 0
107 54 0
-107 -54 0
57 81 0
-57 -81 0
9 115 0
-9 -115 0
98 140 0
-98 -140 0
21 99 0
-21 -99 0
8 43 0
-8 -43 0
48 122 0
-48 -122 0
113 59 0
-113 -59 0
127 84 0
-127 -84 0
27 39 0
-27 -39 0
47 127 0
-47 -127 0
107 114 0
-107 -114 0
47 10 0
-47 -10 0
62 44 0
-62 -44 0
70 54 0
-70 -54 0
136 75 0
-136 -75 0
139 42 0
-139 -42 0
39 109 0
-39 -109 0
106 32 0
-106 -32 0
121 66 0
-121 -66 0
45 29 0
-45 -29 0
25 20 0
-25 -20 0
133 80 0
-133 -80 0
66 79 0
-66 -79 0
83 16 0
-83 -16 0
131 39 0
-131 -39 0
54 100 0
-54 -100 0
5 20 0
-5 -20 0
44 72 0
-44 -72 0
46 26 0
-46 -26 0
113 118 0
-113 -118 0
3 8 0
-3 -8 0
31 73 0
-31 -73 0
139 35 0
-139 -35 0
133 119 0
-133 -119 0
78 129 0
-78 -129 0
31 50 0
-31 -50 0
102 137 0
-102 -137 0
66 131 0
-66 -131 0
110 132 0
-110 -132 0
36 104 0
-36 -104 0
79 61 0
-79 -61 0
41 4 0
-41 -4 0
107 59 0
-107 -59 0
87 137 0
-87 -137 0
72 38 0
-72 -38 0
112 65 0
-112 -65 0
49 88 0
-49 -88 0
3 126 0
-3 -126 0
33 118 0
-33 -118 0
122 80 0
-122 -80 0
74 32 0
-74 -32 0
94 2 0
-94 -2 0
69 95 0
-69 -95 0
31 21 0
-31 -21 0
113 100 0
-113 -100 0
10 13 0
-10 -13 0
45 33 0
-45 -33 0
72 23 0
-72 -23 0
47 12 0
-47 -12 0
83 137 0
-83 -137 0
103 86 0
-103 -86 0
108 6 0
-108 -6 0
103 22 0
-103 -22 0
19 51 0
-19 -51 0
63 124 0
-63 -124 0
50 43 0
-50 -43 0
87 20 0
-87 -20 0
34 25 0
-34 -25 0
46 17 0
-46 -17 0
113 15 0
-113 -15 0
87 115 0
-87 -115 0
134 115 0
-134 -115 0
139 8 0
-139 -8 0
115 30 0
-115 -30 0
84 92 0
-84 -92 0
81 119 0
-81 -119 0
112 128 0
-112 -128 0
116 17 0
-116 -17 0
48 58 0
-48 -58 0
66 99 0
-66 -99 0
102 116 0
-102 -116 0
68 113 0
-68 -113 0
96 13 0
-96 -13 0
49 90 0
-49 -90 0
51 128 0
-51 -128 0
17 135 0
-17 -135 0
90 104 0
-90 -104 0
83 78 0
-83 -78 0
92 128 0
-92 -128 0
120 129 0
-120 -129 0
88 120 0
-88 -120 0
57 102 0
-57 -102 0
40 74 0
-40 -74 0
122 104 0
-122 -104 0
102 88 0
-102 -88 0
69 63 0
-69 -63 0
77 49 0
-77 -49 0
82 32 0
-82 -32 0
83 124 0
-83 -124 0
116 72 0
-116 -72 0
46 49 0
-46 -49 0
125 26 0
-125 -26 0
15 140 0
-15 -140 0
104 29 0
-104 -29 0
53 120 0
-53 -120 0
35 86 0
-35 -86 0
45 20 0
-45 -20 0
63 72 0
-63 -72 0
105 11 0
-105 -11 0
121 26 0
-121 -26 0
111 6 0
-111 -6 0
57 105 0
-57 -105 0
121 104 0
-121 -104 0
1 70 0
-1 -70 0
46 44 0
-46 -44 0
102 78 0
-102 -78 0
123 137 0
-123 -137 0
138 135 0
-138 -135 0
96 78 0
-96 -78 0
3 35 0
-3 -35 0
81 120 0
-81 -120 0
62 135 0
-62 -135 0
69 133 0
-69 -133 0
107 128 0
-107 -128 0
96 32 0
-96 -32 0
60 30 0
-60 -30 0
51 28 0
-51 -28 0
17 61 0
-17 -61 0
96 129 0
-96 -129 0
66 65 0
-66 -65 0
38 64 0
-38 -64 0
55 40 0
-55 -40 0
85 105 0
-85 -105 0
89 120 0
-89 -120 0
70 52 0
-70 -52 0
101 9 0
-101 -9 0
105 124 0
-105 -124 0
85 115 0
-85 -115 0
78 120 0
-78 -120 0
116 115 0
-116 -115 0
42 64 0
-42 -64 0
47 82 0
-47 -82 0
74 29 0
-74 -29 0
123 62 0
-123 -62 0
27 58 0
-27 -58 0
79 25 0
-79 -25 0
10 58 0
-10 -58 0
46 72 0
-46 -72 0
70 39 0
-70 -39 0
21 135 0
-21 -135 0
49 131 0
-49 -131 0
28 4 0
-28 -4 0
100 118 0
-100 -118 0
97 59 0
-97 -59 0
63 126 0
-63 -126 0
138 64 0
-138 -64 0
10 5 0
-10 -5 0
67 137 0
-67 -137 0
13 100 0
-13 -100 0
10 116 0
-10 -116 0
137 86 0
-137 -86 0
101 84 0
-101 -84 0
116 8 0
-116 -8 0
83 98 0
-83 -98 0
126 29 0
-126 -29 0
101 32 0
-101 -32 0
105 129 0
-105 -129 0
25 6 0
-25 -6 0
113 95 0
-113 -95 0
1 86 0
-1 -86 0
92 108 0
-92 -108 0
66 135 0
-66 -135 0
1 92 0
-1 -92 0
83 70 0
-83 -70 0
36 113 0
-36 -113 0
31 33 0
-31 -33 0
62 130 0
-62 -130 0
139 28 0
-139 -28 0
103 61 0
-103 -61 0
35 17 0
-35 -17 0
12 131 0
-12 -131 0
3 22 0
-3 -22 0
67 113 0
-67 -113 0
60 59 0
-60 -59 0
89 100 0
-89 -100 0
19 92 0
-19 -92 0
105 120 0
-105 -120 0
44 94 0
-44 -94 0
77 81 0
-77 -81 0
28 128 0
-28 -128 0
83 73 0
-83 -73 0
110 28 0
-110 -28 0
3 119 0
-3 -119 0
52 120 0
-52 -120 0
85 54 0
-85 -54 0
77 4 0
-77 -4 0
42 128 0
-42 -128 0
81 95 0
-81 -95 0
19 44 0
-19 -44 0
103 53 0
-103 -53 0
108 118 0
-108 -118 0
87 73 0
-87 -73 0
88 48 0
-88 -48 0
57 109 0
-57 -109 0
18 124 0
-18 -124 0
43 113 0
-43 -113 0
121 7 0
-121 -7 0
103 137 0
-103 -137 0
103 80 0
-103 -80 0
137 43 0
-137 -43 0
9 103 0
-9 -103 0
130 92 0
-130 -92 0
19 39 0
-19 -39 0
68 4 0
-68 -4 0
90 26 0
-90 -26 0
88 72 0
-88 -72 0
57 92 0
-57 -92 0
