FourierSAT_Github_AIJ/res/fs_1core/maxcut-140-630-0.8-12.cnf.txt
o 189
o 187
